100 3000
1 50
1 15
1 26
1 38
1 21
2 40
1 46
2 29
1 42
1 32
1 48
2 45
1 17
2 22
2 23
1 6
1 49
2 16
1 27
2 49
1 7
1 10
2 30
1 39
1 17
2 27
1 47
2 36
2 28
1 3
2 35
1 8
2 13
2 41
2 10
2 26
1 48
1 22
2 30
1 25
1 1
2 14
2 35
1 2
1 47
2 41
1 39
2 37
2 21
2 25
2 5
2 37
1 19
2 29
1 12
2 16
2 23
2 4
1 20
1 7
2 33
2 14
1 9
1 42
1 33
2 4
1 34
2 24
1 38
1 31
2 1
1 19
2 28
2 8
1 46
1 5
2 13
1 11
1 11
1 43
2 3
1 12
2 34
2 44
1 32
1 31
1 43
1 50
2 18
1 24
1 15
2 18
2 20
2 6
1 45
1 44
2 36
2 40
1 9
2 2
